phase2/problem_log/problem954.sol
# Solution for model Resale_Solver
# Objective value = 1200
list[0] 0
list[1] 0
list[2] 0
list[3] 0
list[4] 0
list[5] 0
indicator[0] 2e+09
indicator[1] 2e+09
indicator[2] 2e+09
indicator[3] 2e+09
indicator[4] 2e+09
indicator[5] 2e+09
